1040
1 0 5 521 0 1040 1 1039 1 1038 1 1037 1
2 0 5 522 1 752 1 953 1 917 1 975 1
3 0 5 523 1 524 1 595 1 556 1 953 1
4 0 5 524 1 523 1 556 1 953 1 837 1
5 0 5 525 1 547 1 795 1 659 1 1007 1
6 0 5 526 1 992 1 889 1 565 1 987 1
7 0 5 527 1 645 1 603 1 602 1 566 1
8 0 5 528 1 949 1 863 1 845 1 851 1
9 0 5 529 1 941 1 910 1 1003 1 749 1
10 0 5 530 1 857 1 769 1 877 1 575 1
11 0 5 531 1 849 1 734 1 681 1 944 1
12 0 5 532 1 697 1 818 1 718 1 597 1
13 0 5 533 1 1006 1 1020 1 560 1 662 1
14 0 5 534 1 762 1 979 1 703 1 1007 1
15 0 5 535 1 671 1 841 1 610 1 573 1
16 0 5 536 1 597 1 532 1 809 1 799 1
17 0 5 537 1 705 1 782 1 609 1 636 1
18 0 5 538 1 634 1 772 1 639 1 635 1
19 0 5 539 1 911 1 541 1 733 1 905 1
20 0 5 540 1 906 1 739 1 553 1 849 1
21 0 5 541 1 975 1 539 1 737 1 729 1
22 0 5 542 1 1010 1 874 1 533 1 684 1
23 0 5 543 1 673 1 889 1 931 1 766 1
24 0 5 544 1 808 1 930 1 579 1 951 1
25 0 5 545 1 747 1 868 1 671 1 1004 1
26 0 5 546 1 594 1 1019 1 613 1 738 1
27 0 5 547 1 558 1 722 1 1007 1 973 1
28 0 5 548 1 676 1 761 1 691 1 597 1
29 0 5 549 1 691 1 737 1 595 1 548 1
30 0 5 550 1 919 1 895 1 659 1 868 1
31 0 5 551 1 988 1 700 1 613 1 828 1
32 0 5 552 1 852 1 528 1 991 1 1012 1
33 0 5 553 1 540 1 739 1 872 1 806 1
34 0 5 554 1 781 1 839 1 838 1 876 1
35 0 5 555 1 1008 1 568 1 837 1 720 1
36 0 5 556 1 985 1 524 1 612 1 646 1
37 0 5 557 1 1003 1 529 1 910 1 751 1
38 0 5 558 1 722 1 968 1 547 1 973 1
39 0 5 559 1 834 1 992 1 889 1 629 1
40 0 5 560 1 1006 1 967 1 1003 1 533 1
41 0 5 561 1 1016 1 721 1 672 1 577 1
42 0 5 562 1 865 1 1004 1 841 1 950 1
43 0 5 563 1 1009 1 672 1 736 1 891 1
44 0 5 564 1 812 1 652 1 706 1 582 1
45 0 5 565 1 889 1 526 1 957 1 619 1
46 0 5 566 1 527 1 890 1 887 1 800 1
47 0 5 567 1 616 1 657 1 729 1 532 1
48 0 5 568 1 780 1 1001 1 998 1 881 1
49 0 5 569 1 770 1 834 1 921 1 779 1
50 0 5 570 1 715 1 684 1 603 1 542 1
51 0 5 571 1 765 1 942 1 893 1 598 1
52 0 5 572 1 724 1 742 1 706 1 661 1
53 0 5 573 1 801 1 907 1 610 1 952 1
54 0 5 574 1 898 1 625 1 947 1 727 1
55 0 5 575 1 897 1 892 1 530 1 980 1
56 0 5 576 1 856 1 1018 1 708 1 735 1
57 0 5 577 1 956 1 679 1 753 1 974 1
58 0 5 578 1 932 1 764 1 1006 1 854 1
59 0 5 579 1 544 1 951 1 759 1 888 1
60 0 5 580 1 966 1 792 1 901 1 711 1
61 0 5 581 1 760 1 938 1 726 1 1005 1
62 0 5 582 1 564 1 819 1 750 1 643 1
63 0 5 583 1 626 1 836 1 769 1 897 1
64 0 5 584 1 945 1 937 1 607 1 802 1
65 0 5 585 1 883 1 632 1 915 1 722 1
66 0 5 586 1 884 1 775 1 673 1 669 1
67 0 5 587 1 582 1 652 1 643 1 769 1
68 0 5 588 1 995 1 1010 1 821 1 874 1
69 0 5 589 1 944 1 681 1 903 1 688 1
70 0 5 590 1 797 1 620 1 793 1 778 1
71 0 5 591 1 953 1 737 1 616 1 657 1
72 0 5 592 1 785 1 733 1 681 1 589 1
73 0 5 593 1 835 1 758 1 759 1 787 1
74 0 5 594 1 546 1 613 1 977 1 718 1
75 0 5 595 1 612 1 556 1 523 1 646 1
76 0 5 596 1 662 1 894 1 916 1 637 1
77 0 5 597 1 961 1 532 1 548 1 676 1
78 0 5 598 1 904 1 942 1 893 1 765 1
79 0 5 599 1 869 1 910 1 1003 1 941 1
80 0 5 600 1 718 1 964 1 994 1 524 1
81 0 5 601 1 1017 1 654 1 872 1 553 1
82 0 5 602 1 925 1 655 1 1018 1 603 1
83 0 5 603 1 715 1 570 1 751 1 533 1
84 0 5 604 1 1005 1 824 1 699 1 791 1
85 0 5 605 1 551 1 940 1 669 1 887 1
86 0 5 606 1 936 1 985 1 963 1 646 1
87 0 5 607 1 855 1 937 1 595 1 802 1
88 0 5 608 1 982 1 679 1 965 1 974 1
89 0 5 609 1 636 1 900 1 661 1 705 1
90 0 5 610 1 535 1 841 1 960 1 573 1
91 0 5 611 1 922 1 842 1 965 1 736 1
92 0 5 612 1 646 1 750 1 595 1 985 1
93 0 5 613 1 847 1 1019 1 594 1 882 1
94 0 5 614 1 702 1 744 1 746 1 563 1
95 0 5 615 1 903 1 688 1 993 1 741 1
96 0 5 616 1 591 1 737 1 761 1 924 1
97 0 5 617 1 959 1 968 1 973 1 766 1
98 0 5 618 1 812 1 641 1 652 1 816 1
99 0 5 619 1 957 1 731 1 526 1 972 1
100 0 5 620 1 590 1 793 1 778 1 797 1
101 0 5 621 1 628 1 521 1 986 1 854 1
102 0 5 622 1 1021 1 1015 1 725 1 1008 1
103 0 5 623 1 978 1 885 1 666 1 935 1
104 0 5 624 1 521 1 863 1 728 1 986 1
105 0 5 625 1 650 1 727 1 947 1 871 1
106 0 5 626 1 819 1 769 1 583 1 913 1
107 0 5 627 1 800 1 924 1 818 1 566 1
108 0 5 628 1 687 1 920 1 716 1 967 1
109 0 5 629 1 569 1 834 1 770 1 779 1
110 0 5 630 1 825 1 955 1 901 1 674 1
111 0 5 631 1 853 1 683 1 858 1 749 1
112 0 5 632 1 883 1 801 1 570 1 585 1
113 0 5 633 1 827 1 713 1 728 1 764 1
114 0 5 634 1 639 1 966 1 997 1 538 1
115 0 5 635 1 711 1 772 1 538 1 791 1
116 0 5 636 1 609 1 537 1 914 1 782 1
117 0 5 637 1 596 1 662 1 638 1 784 1
118 0 5 638 1 637 1 865 1 610 1 728 1
119 0 5 639 1 966 1 634 1 997 1 538 1
120 0 5 640 1 649 1 933 1 665 1 800 1
121 0 5 641 1 618 1 879 1 584 1 816 1
122 0 5 642 1 794 1 717 1 756 1 950 1
123 0 5 643 1 769 1 819 1 587 1 582 1
124 0 5 644 1 658 1 568 1 719 1 752 1
125 0 5 645 1 751 1 655 1 602 1 603 1
126 0 5 646 1 612 1 750 1 812 1 985 1
127 0 5 647 1 870 1 875 1 862 1 934 1
128 0 5 648 1 561 1 1016 1 672 1 721 1
129 0 5 649 1 697 1 700 1 567 1 880 1
130 0 5 650 1 574 1 625 1 727 1 649 1
131 0 5 651 1 730 1 900 1 773 1 661 1
132 0 5 652 1 587 1 564 1 582 1 812 1
133 0 5 653 1 890 1 566 1 775 1 527 1
134 0 5 654 1 782 1 914 1 806 1 850 1
135 0 5 655 1 529 1 783 1 751 1 941 1
136 0 5 656 1 696 1 876 1 580 1 699 1
137 0 5 657 1 567 1 697 1 616 1 532 1
138 0 5 658 1 719 1 877 1 530 1 857 1
139 0 5 659 1 868 1 550 1 958 1 895 1
140 0 5 660 1 579 1 544 1 813 1 723 1
141 0 5 661 1 773 1 609 1 900 1 705 1
142 0 5 662 1 735 1 952 1 533 1 856 1
143 0 5 663 1 815 1 720 1 738 1 622 1
144 0 5 664 1 976 1 860 1 998 1 980 1
145 0 5 665 1 668 1 761 1 871 1 800 1
146 0 5 666 1 623 1 935 1 978 1 767 1
147 0 5 667 1 692 1 881 1 707 1 861 1
148 0 5 668 1 665 1 655 1 925 1 789 1
149 0 5 669 1 551 1 1011 1 884 1 847 1
150 0 5 670 1 816 1 724 1 704 1 879 1
151 0 5 671 1 545 1 1004 1 747 1 841 1
152 0 5 672 1 648 1 891 1 577 1 679 1
153 0 5 673 1 586 1 889 1 959 1 968 1
154 0 5 674 1 825 1 630 1 901 1 580 1
155 0 5 675 1 969 1 811 1 807 1 550 1
156 0 5 676 1 691 1 548 1 549 1 532 1
157 0 5 677 1 837 1 829 1 755 1 964 1
158 0 5 678 1 958 1 919 1 550 1 659 1
159 0 5 679 1 974 1 577 1 608 1 965 1
160 0 5 680 1 647 1 846 1 726 1 760 1
161 0 5 681 1 589 1 944 1 734 1 903 1
162 0 5 682 1 704 1 879 1 670 1 989 1
163 0 5 683 1 858 1 941 1 631 1 920 1
164 0 5 684 1 542 1 533 1 715 1 570 1
165 0 5 685 1 866 1 951 1 712 1 544 1
166 0 5 686 1 748 1 602 1 925 1 1018 1
167 0 5 687 1 745 1 920 1 749 1 822 1
168 0 5 688 1 993 1 654 1 615 1 1017 1
169 0 5 689 1 1018 1 896 1 983 1 748 1
170 0 5 690 1 768 1 803 1 701 1 873 1
171 0 5 691 1 549 1 548 1 676 1 953 1
172 0 5 692 1 881 1 860 1 667 1 948 1
173 0 5 693 1 556 1 963 1 985 1 769 1
174 0 5 694 1 614 1 873 1 929 1 876 1
175 0 5 695 1 527 1 775 1 890 1 653 1
176 0 5 696 1 554 1 876 1 656 1 580 1
177 0 5 697 1 657 1 818 1 532 1 924 1
178 0 5 698 1 678 1 895 1 919 1 804 1
179 0 5 699 1 604 1 824 1 763 1 635 1
180 0 5 700 1 532 1 594 1 551 1 697 1
181 0 5 701 1 873 1 997 1 820 1 803 1
182 0 5 702 1 929 1 614 1 805 1 736 1
183 0 5 703 1 979 1 804 1 807 1 1007 1
184 0 5 704 1 670 1 682 1 879 1 724 1
185 0 5 705 1 900 1 782 1 609 1 661 1
186 0 5 706 1 572 1 724 1 661 1 742 1
187 0 5 707 1 861 1 918 1 769 1 667 1
188 0 5 708 1 856 1 576 1 735 1 916 1
189 0 5 709 1 824 1 763 1 699 1 920 1
190 0 5 710 1 848 1 789 1 871 1 788 1
191 0 5 711 1 792 1 635 1 699 1 772 1
192 0 5 712 1 685 1 808 1 593 1 930 1
193 0 5 713 1 954 1 728 1 638 1 827 1
194 0 5 714 1 827 1 713 1 633 1 728 1
195 0 5 715 1 684 1 533 1 570 1 603 1
196 0 5 716 1 967 1 749 1 920 1 986 1
197 0 5 717 1 756 1 794 1 950 1 585 1
198 0 5 718 1 964 1 677 1 600 1 532 1
199 0 5 719 1 658 1 752 1 877 1 644 1
200 0 5 720 1 738 1 1008 1 644 1 555 1
201 0 5 721 1 885 1 1016 1 561 1 648 1
202 0 5 722 1 558 1 1013 1 585 1 525 1
203 0 5 723 1 990 1 813 1 951 1 1009 1
204 0 5 724 1 661 1 816 1 773 1 742 1
205 0 5 725 1 622 1 798 1 828 1 889 1
206 0 5 726 1 846 1 680 1 760 1 777 1
207 0 5 727 1 905 1 947 1 911 1 574 1
208 0 5 728 1 638 1 1020 1 578 1 932 1
209 0 5 729 1 917 1 567 1 657 1 953 1
210 0 5 730 1 741 1 651 1 767 1 867 1
211 0 5 731 1 619 1 755 1 957 1 526 1
212 0 5 732 1 795 1 868 1 939 1 754 1
213 0 5 733 1 681 1 989 1 589 1 592 1
214 0 5 734 1 531 1 849 1 681 1 944 1
215 0 5 735 1 662 1 856 1 533 1 864 1
216 0 5 736 1 746 1 702 1 563 1 842 1
217 0 5 737 1 591 1 761 1 616 1 1014 1
218 0 5 738 1 720 1 1015 1 555 1 829 1
219 0 5 739 1 553 1 888 1 540 1 778 1
220 0 5 740 1 904 1 1000 1 928 1 1002 1
221 0 5 741 1 935 1 666 1 730 1 832 1
222 0 5 742 1 773 1 900 1 572 1 661 1
223 0 5 743 1 875 1 648 1 757 1 805 1
224 0 5 744 1 608 1 982 1 702 1 965 1
225 0 5 745 1 822 1 683 1 853 1 631 1
226 0 5 746 1 878 1 736 1 744 1 614 1
227 0 5 747 1 902 1 754 1 801 1 545 1
228 0 5 748 1 686 1 602 1 984 1 925 1
229 0 5 749 1 689 1 1018 1 560 1 967 1
230 0 5 750 1 833 1 582 1 643 1 646 1
231 0 5 751 1 557 1 655 1 529 1 1003 1
232 0 5 752 1 719 1 522 1 994 1 524 1
233 0 5 753 1 866 1 577 1 672 1 965 1
234 0 5 754 1 732 1 902 1 971 1 939 1
235 0 5 755 1 799 1 731 1 829 1 837 1
236 0 5 756 1 794 1 642 1 717 1 950 1
237 0 5 757 1 743 1 875 1 563 1 929 1
238 0 5 758 1 835 1 965 1 753 1 593 1
239 0 5 759 1 593 1 797 1 930 1 808 1
240 0 5 760 1 726 1 680 1 846 1 947 1
241 0 5 761 1 548 1 676 1 597 1 691 1
242 0 5 762 1 534 1 565 1 771 1 987 1
243 0 5 763 1 699 1 876 1 604 1 838 1
244 0 5 764 1 932 1 578 1 1006 1 986 1
245 0 5 765 1 904 1 893 1 740 1 851 1
246 0 5 766 1 669 1 959 1 847 1 617 1
247 0 5 767 1 867 1 741 1 730 1 832 1
248 0 5 768 1 690 1 803 1 873 1 701 1
249 0 5 769 1 530 1 643 1 626 1 693 1
250 0 5 770 1 779 1 629 1 559 1 889 1
251 0 5 771 1 762 1 834 1 565 1 987 1
252 0 5 772 1 538 1 788 1 634 1 639 1
253 0 5 773 1 661 1 742 1 900 1 609 1
254 0 5 774 1 791 1 788 1 772 1 943 1
255 0 5 775 1 653 1 695 1 669 1 890 1
256 0 5 776 1 1012 1 893 1 851 1 949 1
257 0 5 777 1 680 1 911 1 846 1 726 1
258 0 5 778 1 793 1 850 1 797 1 872 1
259 0 5 779 1 921 1 770 1 629 1 889 1
260 0 5 780 1 707 1 667 1 692 1 881 1
261 0 5 781 1 839 1 694 1 614 1 757 1
262 0 5 782 1 537 1 654 1 900 1 636 1
263 0 5 783 1 941 1 925 1 683 1 529 1
264 0 5 784 1 637 1 610 1 827 1 596 1
265 0 5 785 1 592 1 733 1 681 1 531 1
266 0 5 786 1 796 1 883 1 632 1 1011 1
267 0 5 787 1 922 1 758 1 930 1 593 1
268 0 5 788 1 774 1 791 1 772 1 634 1
269 0 5 789 1 943 1 934 1 788 1 848 1
270 0 5 790 1 620 1 590 1 888 1 739 1
271 0 5 791 1 711 1 581 1 635 1 1005 1
272 0 5 792 1 1002 1 886 1 580 1 711 1
273 0 5 793 1 778 1 797 1 590 1 906 1
274 0 5 794 1 950 1 717 1 756 1 642 1
275 0 5 795 1 525 1 585 1 868 1 722 1
276 0 5 796 1 1011 1 786 1 570 1 632 1
277 0 5 797 1 956 1 793 1 759 1 808 1
278 0 5 798 1 725 1 988 1 1019 1 828 1
279 0 5 799 1 536 1 755 1 809 1 837 1
280 0 5 800 1 627 1 665 1 527 1 640 1
281 0 5 801 1 907 1 971 1 952 1 747 1
282 0 5 802 1 908 1 855 1 1014 1 584 1
283 0 5 803 1 768 1 701 1 690 1 873 1
284 0 5 804 1 979 1 807 1 703 1 1007 1
285 0 5 805 1 929 1 803 1 648 1 744 1
286 0 5 806 1 814 1 872 1 944 1 734 1
287 0 5 807 1 717 1 969 1 979 1 550 1
288 0 5 808 1 712 1 930 1 759 1 685 1
289 0 5 809 1 536 1 799 1 532 1 597 1
290 0 5 810 1 1000 1 817 1 893 1 928 1
291 0 5 811 1 1004 1 642 1 969 1 675 1
292 0 5 812 1 564 1 706 1 652 1 750 1
293 0 5 813 1 660 1 579 1 544 1 723 1
294 0 5 814 1 739 1 806 1 944 1 1017 1
295 0 5 815 1 644 1 663 1 720 1 859 1
296 0 5 816 1 584 1 812 1 706 1 564 1
297 0 5 817 1 928 1 981 1 656 1 696 1
298 0 5 818 1 924 1 532 1 627 1 594 1
299 0 5 819 1 913 1 643 1 582 1 750 1
300 0 5 820 1 997 1 701 1 873 1 803 1
301 0 5 821 1 995 1 1010 1 874 1 610 1
302 0 5 822 1 631 1 853 1 745 1 581 1
303 0 5 823 1 832 1 885 1 867 1 741 1
304 0 5 824 1 1005 1 581 1 699 1 791 1
305 0 5 825 1 955 1 630 1 901 1 1002 1
306 0 5 826 1 714 1 827 1 633 1 624 1
307 0 5 827 1 728 1 713 1 637 1 784 1
308 0 5 828 1 859 1 988 1 663 1 798 1
309 0 5 829 1 977 1 677 1 809 1 837 1
310 0 5 830 1 709 1 920 1 628 1 716 1
311 0 5 831 1 1020 1 874 1 1010 1 932 1
312 0 5 832 1 867 1 741 1 823 1 730 1
313 0 5 833 1 646 1 769 1 612 1 750 1
314 0 5 834 1 771 1 559 1 629 1 565 1
315 0 5 835 1 758 1 593 1 965 1 753 1
316 0 5 836 1 583 1 626 1 980 1 918 1
317 0 5 837 1 677 1 555 1 829 1 524 1
318 0 5 838 1 757 1 839 1 875 1 876 1
319 0 5 839 1 781 1 757 1 838 1 743 1
320 0 5 840 1 826 1 633 1 854 1 986 1
321 0 5 841 1 671 1 747 1 865 1 610 1
322 0 5 842 1 736 1 746 1 563 1 1009 1
323 0 5 843 1 723 1 891 1 1009 1 531 1
324 0 5 844 1 729 1 567 1 649 1 657 1
325 0 5 845 1 528 1 851 1 949 1 521 1
326 0 5 846 1 777 1 680 1 726 1 760 1
327 0 5 847 1 931 1 543 1 669 1 766 1
328 0 5 848 1 789 1 934 1 788 1 710 1
329 0 5 849 1 872 1 906 1 540 1 531 1
330 0 5 850 1 912 1 914 1 654 1 1017 1
331 0 5 851 1 845 1 949 1 528 1 776 1
332 0 5 852 1 810 1 1000 1 893 1 851 1
333 0 5 853 1 631 1 683 1 858 1 749 1
334 0 5 854 1 986 1 521 1 909 1 999 1
335 0 5 855 1 1014 1 802 1 730 1 651 1
336 0 5 856 1 864 1 576 1 1018 1 735 1
337 0 5 857 1 877 1 963 1 555 1 693 1
338 0 5 858 1 941 1 886 1 920 1 683 1
339 0 5 859 1 663 1 828 1 815 1 622 1
340 0 5 860 1 976 1 998 1 568 1 1001 1
341 0 5 861 1 899 1 707 1 667 1 575 1
342 0 5 862 1 934 1 1005 1 870 1 538 1
343 0 5 863 1 521 1 949 1 624 1 528 1
344 0 5 864 1 984 1 916 1 603 1 856 1
345 0 5 865 1 562 1 841 1 638 1 950 1
346 0 5 866 1 685 1 753 1 951 1 965 1
347 0 5 867 1 832 1 767 1 730 1 741 1
348 0 5 868 1 550 1 659 1 525 1 919 1
349 0 5 869 1 886 1 967 1 716 1 578 1
350 0 5 870 1 862 1 934 1 647 1 875 1
351 0 5 871 1 710 1 947 1 925 1 789 1
352 0 5 872 1 849 1 601 1 806 1 553 1
353 0 5 873 1 674 1 901 1 768 1 690 1
354 0 5 874 1 1010 1 831 1 1020 1 995 1
355 0 5 875 1 648 1 647 1 743 1 870 1
356 0 5 876 1 838 1 699 1 604 1 656 1
357 0 5 877 1 530 1 963 1 857 1 555 1
358 0 5 878 1 842 1 736 1 746 1 1009 1
359 0 5 879 1 682 1 989 1 641 1 908 1
360 0 5 880 1 898 1 924 1 649 1 933 1
361 0 5 881 1 948 1 667 1 892 1 692 1
362 0 5 882 1 546 1 1015 1 1019 1 738 1
363 0 5 883 1 632 1 585 1 786 1 915 1
364 0 5 884 1 695 1 1011 1 775 1 527 1
365 0 5 885 1 823 1 962 1 721 1 849 1
366 0 5 886 1 999 1 967 1 920 1 792 1
367 0 5 887 1 700 1 551 1 933 1 649 1
368 0 5 888 1 790 1 739 1 951 1 590 1
369 0 5 889 1 526 1 559 1 629 1 673 1
370 0 5 890 1 566 1 695 1 961 1 653 1
371 0 5 891 1 1009 1 563 1 577 1 672 1
372 0 5 892 1 575 1 948 1 860 1 881 1
373 0 5 893 1 928 1 817 1 851 1 810 1
374 0 5 894 1 573 1 907 1 916 1 952 1
375 0 5 895 1 675 1 969 1 659 1 550 1
376 0 5 896 1 983 1 938 1 925 1 581 1
377 0 5 897 1 836 1 575 1 583 1 769 1
378 0 5 898 1 880 1 933 1 640 1 697 1
379 0 5 899 1 587 1 861 1 643 1 707 1
380 0 5 900 1 651 1 742 1 609 1 773 1
381 0 5 901 1 981 1 674 1 580 1 630 1
382 0 5 902 1 754 1 747 1 801 1 756 1
383 0 5 903 1 601 1 615 1 993 1 849 1
384 0 5 904 1 893 1 1000 1 740 1 817 1
385 0 5 905 1 727 1 911 1 737 1 539 1
386 0 5 906 1 951 1 540 1 849 1 739 1
387 0 5 907 1 952 1 971 1 916 1 573 1
388 0 5 908 1 989 1 900 1 742 1 572 1
389 0 5 909 1 521 1 999 1 949 1 854 1
390 0 5 910 1 599 1 869 1 886 1 1003 1
391 0 5 911 1 905 1 727 1 947 1 737 1
392 0 5 912 1 914 1 850 1 654 1 688 1
393 0 5 913 1 918 1 819 1 980 1 626 1
394 0 5 914 1 636 1 782 1 537 1 654 1
395 0 5 915 1 939 1 732 1 795 1 585 1
396 0 5 916 1 708 1 864 1 735 1 662 1
397 0 5 917 1 522 1 953 1 752 1 975 1
398 0 5 918 1 980 1 913 1 836 1 626 1
399 0 5 919 1 895 1 550 1 659 1 868 1
400 0 5 920 1 886 1 687 1 745 1 938 1
401 0 5 921 1 973 1 534 1 958 1 569 1
402 0 5 922 1 787 1 965 1 758 1 712 1
403 0 5 923 1 996 1 611 1 787 1 922 1
404 0 5 924 1 933 1 818 1 880 1 627 1
405 0 5 925 1 668 1 898 1 574 1 871 1
406 0 5 926 1 958 1 678 1 919 1 868 1
407 0 5 927 1 689 1 749 1 687 1 967 1
408 0 5 928 1 656 1 981 1 817 1 901 1
409 0 5 929 1 805 1 702 1 614 1 757 1
410 0 5 930 1 787 1 759 1 808 1 712 1
411 0 5 931 1 543 1 847 1 766 1 586 1
412 0 5 932 1 578 1 764 1 1006 1 1020 1
413 0 5 933 1 800 1 627 1 924 1 898 1
414 0 5 934 1 635 1 791 1 774 1 788 1
415 0 5 935 1 666 1 741 1 623 1 823 1
416 0 5 936 1 606 1 985 1 963 1 892 1
417 0 5 937 1 607 1 855 1 584 1 945 1
418 0 5 938 1 581 1 983 1 822 1 791 1
419 0 5 939 1 915 1 971 1 732 1 795 1
420 0 5 940 1 959 1 766 1 669 1 617 1
421 0 5 941 1 910 1 858 1 529 1 783 1
422 0 5 942 1 598 1 893 1 776 1 904 1
423 0 5 943 1 683 1 783 1 791 1 934 1
424 0 5 944 1 806 1 814 1 589 1 681 1
425 0 5 945 1 937 1 584 1 812 1 706 1
426 0 5 946 1 991 1 863 1 826 1 552 1
427 0 5 947 1 871 1 710 1 574 1 848 1
428 0 5 948 1 892 1 575 1 860 1 568 1
429 0 5 949 1 521 1 528 1 845 1 863 1
430 0 5 950 1 588 1 1004 1 794 1 642 1
431 0 5 951 1 888 1 906 1 797 1 739 1
432 0 5 952 1 971 1 801 1 570 1 662 1
433 0 5 953 1 549 1 975 1 591 1 523 1
434 0 5 954 1 638 1 637 1 535 1 610 1
435 0 5 955 1 851 1 970 1 825 1 630 1
436 0 5 956 1 962 1 753 1 797 1 891 1
437 0 5 957 1 987 1 526 1 565 1 731 1
438 0 5 958 1 659 1 1007 1 547 1 868 1
439 0 5 959 1 766 1 617 1 968 1 586 1
440 0 5 960 1 535 1 894 1 754 1 747 1
441 0 5 961 1 640 1 566 1 653 1 890 1
442 0 5 962 1 891 1 672 1 1016 1 875 1
443 0 5 963 1 693 1 936 1 985 1 606 1
444 0 5 964 1 994 1 718 1 600 1 677 1
445 0 5 965 1 744 1 679 1 922 1 753 1
446 0 5 966 1 711 1 772 1 538 1 639 1
447 0 5 967 1 560 1 716 1 749 1 886 1
448 0 5 968 1 1007 1 558 1 673 1 586 1
449 0 5 969 1 811 1 807 1 675 1 1007 1
450 0 5 970 1 763 1 696 1 699 1 824 1
451 0 5 971 1 939 1 907 1 786 1 952 1
452 0 5 972 1 731 1 619 1 1001 1 526 1
453 0 5 973 1 617 1 968 1 921 1 958 1
454 0 5 974 1 820 1 803 1 768 1 982 1
455 0 5 975 1 541 1 729 1 737 1 953 1
456 0 5 976 1 998 1 664 1 860 1 731 1
457 0 5 977 1 809 1 829 1 594 1 718 1
458 0 5 978 1 885 1 623 1 806 1 823 1
459 0 5 979 1 804 1 807 1 703 1 969 1
460 0 5 980 1 664 1 860 1 692 1 976 1
461 0 5 981 1 630 1 901 1 825 1 580 1
462 0 5 982 1 690 1 805 1 608 1 803 1
463 0 5 983 1 896 1 938 1 581 1 822 1
464 0 5 984 1 640 1 748 1 686 1 925 1
465 0 5 985 1 693 1 936 1 963 1 606 1
466 0 5 986 1 854 1 578 1 999 1 909 1
467 0 5 987 1 771 1 565 1 992 1 834 1
468 0 5 988 1 798 1 828 1 889 1 725 1
469 0 5 989 1 682 1 615 1 688 1 993 1
470 0 5 990 1 813 1 723 1 660 1 540 1
471 0 5 991 1 552 1 528 1 852 1 946 1
472 0 5 992 1 526 1 987 1 889 1 559 1
473 0 5 993 1 688 1 615 1 654 1 903 1
474 0 5 994 1 600 1 837 1 524 1 738 1
475 0 5 995 1 831 1 1010 1 874 1 610 1
476 0 5 996 1 923 1 611 1 922 1 842 1
477 0 5 997 1 966 1 639 1 634 1 538 1
478 0 5 998 1 1001 1 976 1 860 1 755 1
479 0 5 999 1 621 1 909 1 886 1 1002 1
480 0 5 1000 1 817 1 928 1 740 1 904 1
481 0 5 1001 1 972 1 998 1 731 1 755 1
482 0 5 1002 1 999 1 621 1 886 1 792 1
483 0 5 1003 1 910 1 599 1 560 1 869 1
484 0 5 1004 1 642 1 562 1 545 1 811 1
485 0 5 1005 1 760 1 934 1 581 1 726 1
486 0 5 1006 1 764 1 560 1 932 1 533 1
487 0 5 1007 1 703 1 804 1 973 1 550 1
488 0 5 1008 1 555 1 720 1 622 1 568 1
489 0 5 1009 1 891 1 563 1 723 1 672 1
490 0 5 1010 1 874 1 831 1 995 1 1020 1
491 0 5 1011 1 796 1 570 1 669 1 884 1
492 0 5 1012 1 851 1 571 1 893 1 776 1
493 0 5 1013 1 585 1 795 1 717 1 883 1
494 0 5 1014 1 802 1 855 1 908 1 730 1
495 0 5 1015 1 882 1 738 1 546 1 1008 1
496 0 5 1016 1 721 1 561 1 1009 1 648 1
497 0 5 1017 1 850 1 814 1 654 1 589 1
498 0 5 1018 1 686 1 748 1 984 1 749 1
499 0 5 1019 1 613 1 882 1 546 1 1015 1
500 0 5 1020 1 831 1 932 1 1006 1 728 1
501 0 5 1021 1 568 1 1008 1 622 1 972 1
502 0 5 1022 0 521 1 1022 1 1023 1 1024 1
503 0 5 1023 0 521 1 1022 1 1023 1 1024 1
504 0 5 1024 0 521 1 1022 1 1023 1 1024 1
505 0 5 1025 0 521 1 1022 1 1023 1 1024 1
506 0 5 1026 0 521 1 1022 1 1023 1 1024 1
507 0 5 1027 0 521 1 1022 1 1023 1 1024 1
508 0 5 1028 0 521 1 1022 1 1023 1 1024 1
509 0 5 1029 0 521 1 1022 1 1023 1 1024 1
510 0 5 1030 0 521 1 1022 1 1023 1 1024 1
511 0 5 1031 0 521 1 1022 1 1023 1 1024 1
512 0 5 1032 0 521 1 1022 1 1023 1 1024 1
513 0 5 1033 0 521 1 1022 1 1023 1 1024 1
514 0 5 1034 0 521 1 1022 1 1023 1 1024 1
515 0 5 1035 0 521 1 1022 1 1023 1 1024 1
516 0 5 1036 0 521 1 1022 1 1023 1 1024 1
517 0 5 1037 0 521 1 1022 1 1023 1 1024 1
518 0 5 1038 0 521 1 1022 1 1023 1 1024 1
519 0 5 1039 0 521 1 1022 1 1023 1 1024 1
520 0 5 1040 0 521 1 1022 1 1023 1 1024 1
521 0 5 1 0 520 1 519 1 518 1 517 1
522 0 5 2 1 397 1 232 1 433 1 455 1
523 0 5 3 1 4 1 433 1 36 1 75 1
524 0 5 4 1 36 1 3 1 80 1 232 1
525 0 5 5 1 275 1 348 1 202 1 27 1
526 0 5 6 1 472 1 369 1 437 1 39 1
527 0 5 7 1 175 1 46 1 280 1 441 1
528 0 5 8 1 325 1 32 1 429 1 331 1
529 0 5 9 1 135 1 333 1 229 1 37 1
530 0 5 10 1 249 1 357 1 138 1 55 1
531 0 5 11 1 214 1 161 1 329 1 424 1
532 0 5 12 1 180 1 298 1 16 1 177 1
533 0 5 13 1 195 1 215 1 164 1 22 1
534 0 5 14 1 242 1 401 1 448 1 183 1
535 0 5 15 1 90 1 440 1 42 1 234 1
536 0 5 16 1 289 1 279 1 12 1 457 1
537 0 5 17 1 116 1 262 1 394 1 89 1
538 0 5 18 1 252 1 115 1 414 1 254 1
539 0 5 19 1 213 1 21 1 385 1 455 1
540 0 5 20 1 33 1 386 1 219 1 329 1
541 0 5 21 1 19 1 455 1 209 1 385 1
542 0 5 22 1 164 1 50 1 195 1 13 1
543 0 5 23 1 411 1 327 1 246 1 259 1
544 0 5 24 1 59 1 165 1 140 1 293 1
545 0 5 25 1 151 1 484 1 321 1 42 1
546 0 5 26 1 362 1 74 1 499 1 495 1
547 0 5 27 1 5 1 38 1 438 1 97 1
548 0 5 28 1 241 1 156 1 171 1 29 1
549 0 5 29 1 171 1 433 1 3 1 156 1
550 0 5 30 1 348 1 399 1 139 1 158 1
551 0 5 31 1 85 1 149 1 367 1 180 1
552 0 5 32 1 471 1 1 1 325 1 492 1
553 0 5 33 1 219 1 20 1 352 1 286 1
554 0 5 34 1 176 1 450 1 356 1 243 1
555 0 5 35 1 488 1 317 1 337 1 218 1
556 0 5 36 1 173 1 75 1 3 1 4 1
557 0 5 37 1 231 1 13 1 9 1 40 1
558 0 5 38 1 202 1 27 1 448 1 5 1
559 0 5 39 1 369 1 314 1 472 1 250 1
560 0 5 40 1 486 1 447 1 229 1 13 1
561 0 5 41 1 128 1 496 1 201 1 152 1
562 0 5 42 1 345 1 484 1 321 1 151 1
563 0 5 43 1 489 1 371 1 216 1 322 1
564 0 5 44 1 292 1 62 1 132 1 296 1
565 0 5 45 1 467 1 6 1 314 1 251 1
566 0 5 46 1 370 1 107 1 133 1 441 1
567 0 5 47 1 137 1 324 1 209 1 397 1
568 0 5 48 1 501 1 35 1 488 1 340 1
569 0 5 49 1 109 1 401 1 250 1 314 1
570 0 5 50 1 83 1 432 1 195 1 164 1
571 0 5 51 1 1 1 492 1 78 1 32 1
572 0 5 52 1 186 1 204 1 222 1 388 1
573 0 5 53 1 374 1 387 1 15 1 90 1
574 0 5 54 1 130 1 427 1 405 1 148 1
575 0 5 55 1 372 1 428 1 10 1 173 1
576 0 5 56 1 188 1 336 1 229 1 215 1
577 0 5 57 1 233 1 371 1 152 1 159 1
578 0 5 58 1 412 1 244 1 466 1 500 1
579 0 5 59 1 140 1 24 1 293 1 70 1
580 0 5 60 1 191 1 136 1 381 1 272 1
581 0 5 61 1 418 1 304 1 271 1 485 1
582 0 5 62 1 67 1 230 1 132 1 123 1
583 0 5 63 1 316 1 106 1 249 1 377 1
584 0 5 64 1 296 1 425 1 417 1 87 1
585 0 5 65 1 493 1 363 1 395 1 202 1
586 0 5 66 1 153 1 448 1 246 1 23 1
587 0 5 67 1 379 1 132 1 123 1 10 1
588 0 5 68 1 430 1 345 1 490 1 281 1
589 0 5 69 1 161 1 497 1 424 1 213 1
590 0 5 70 1 100 1 270 1 273 1 368 1
591 0 5 71 1 217 1 96 1 433 1 455 1
592 0 5 72 1 265 1 213 1 214 1 11 1
593 0 5 73 1 239 1 315 1 267 1 192 1
594 0 5 74 1 26 1 180 1 298 1 457 1
595 0 5 75 1 3 1 87 1 92 1 36 1
596 0 5 76 1 117 1 142 1 264 1 118 1
597 0 5 77 1 16 1 12 1 156 1 28 1
598 0 5 78 1 422 1 51 1 245 1 492 1
599 0 5 79 1 390 1 483 1 40 1 9 1
600 0 5 80 1 474 1 444 1 198 1 232 1
601 0 5 81 1 383 1 352 1 286 1 329 1
602 0 5 82 1 228 1 166 1 125 1 148 1
603 0 5 83 1 50 1 7 1 125 1 82 1
604 0 5 84 1 179 1 304 1 243 1 318 1
605 0 5 85 1 367 1 420 1 149 1 31 1
606 0 5 86 1 416 1 465 1 126 1 443 1
607 0 5 87 1 417 1 64 1 455 1 425 1
608 0 5 88 1 224 1 462 1 445 1 159 1
609 0 5 89 1 141 1 116 1 380 1 394 1
610 0 5 90 1 15 1 321 1 53 1 118 1
611 0 5 91 1 476 1 403 1 322 1 216 1
612 0 5 92 1 75 1 126 1 36 1 425 1
613 0 5 93 1 499 1 31 1 74 1 26 1
614 0 5 94 1 182 1 226 1 409 1 216 1
615 0 5 95 1 383 1 473 1 469 1 168 1
616 0 5 96 1 47 1 71 1 217 1 137 1
617 0 5 97 1 453 1 439 1 23 1 246 1
618 0 5 98 1 121 1 132 1 87 1 296 1
619 0 5 99 1 211 1 452 1 437 1 235 1
620 0 5 100 1 270 1 70 1 273 1 277 1
621 0 5 101 1 1 1 479 1 482 1 256 1
622 0 5 102 1 205 1 488 1 501 1 143 1
623 0 5 103 1 146 1 415 1 303 1 458 1
624 0 5 104 1 58 1 208 1 412 1 466 1
625 0 5 105 1 463 1 54 1 376 1 130 1
626 0 5 106 1 63 1 249 1 316 1 377 1
627 0 5 107 1 280 1 413 1 404 1 298 1
628 0 5 108 1 101 1 196 1 310 1 400 1
629 0 5 109 1 259 1 250 1 314 1 369 1
630 0 5 110 1 461 1 154 1 381 1 305 1
631 0 5 111 1 333 1 302 1 163 1 423 1
632 0 5 112 1 363 1 266 1 65 1 276 1
633 0 5 113 1 1 1 194 1 320 1 306 1
634 0 5 114 1 18 1 119 1 252 1 477 1
635 0 5 115 1 414 1 191 1 271 1 18 1
636 0 5 116 1 394 1 89 1 262 1 141 1
637 0 5 117 1 118 1 434 1 264 1 307 1
638 0 5 118 1 434 1 208 1 117 1 345 1
639 0 5 119 1 114 1 477 1 18 1 252 1
640 0 5 120 1 464 1 441 1 280 1 378 1
641 0 5 121 1 359 1 98 1 417 1 222 1
642 0 5 122 1 291 1 484 1 236 1 25 1
643 0 5 123 1 249 1 379 1 62 1 299 1
644 0 5 124 1 200 1 232 1 199 1 48 1
645 0 5 125 1 7 1 280 1 82 1 120 1
646 0 5 126 1 92 1 36 1 75 1 465 1
647 0 5 127 1 160 1 355 1 350 1 240 1
648 0 5 128 1 355 1 223 1 152 1 285 1
649 0 5 129 1 120 1 360 1 180 1 12 1
650 0 5 130 1 105 1 376 1 463 1 129 1
651 0 5 131 1 380 1 210 1 335 1 388 1
652 0 5 132 1 44 1 67 1 98 1 292 1
653 0 5 133 1 255 1 175 1 441 1 46 1
654 0 5 134 1 262 1 168 1 497 1 81 1
655 0 5 135 1 82 1 231 1 498 1 9 1
656 0 5 136 1 408 1 450 1 176 1 356 1
657 0 5 137 1 177 1 47 1 209 1 71 1
658 0 5 138 1 124 1 199 1 232 1 48 1
659 0 5 139 1 438 1 348 1 30 1 158 1
660 0 5 140 1 293 1 470 1 203 1 192 1
661 0 5 141 1 253 1 204 1 89 1 222 1
662 0 5 142 1 76 1 215 1 13 1 432 1
663 0 5 143 1 339 1 295 1 308 1 102 1
664 0 5 144 1 460 1 456 1 340 1 55 1
665 0 5 145 1 148 1 241 1 280 1 120 1
666 0 5 146 1 415 1 221 1 312 1 303 1
667 0 5 147 1 260 1 361 1 172 1 10 1
668 0 5 148 1 145 1 405 1 120 1 54 1
669 0 5 149 1 246 1 85 1 420 1 66 1
670 0 5 150 1 184 1 98 1 162 1 359 1
671 0 5 151 1 321 1 15 1 25 1 42 1
672 0 5 152 1 43 1 233 1 371 1 41 1
673 0 5 153 1 23 1 448 1 66 1 369 1
674 0 5 154 1 353 1 381 1 181 1 60 1
675 0 5 155 1 375 1 449 1 291 1 487 1
676 0 5 156 1 28 1 241 1 171 1 29 1
677 0 5 157 1 317 1 444 1 198 1 80 1
678 0 5 158 1 178 1 406 1 399 1 438 1
679 0 5 159 1 57 1 88 1 445 1 152 1
680 0 5 160 1 326 1 206 1 257 1 485 1
681 0 5 161 1 213 1 69 1 424 1 214 1
682 0 5 162 1 469 1 359 1 184 1 150 1
683 0 5 163 1 423 1 111 1 333 1 338 1
684 0 5 164 1 195 1 50 1 22 1 13 1
685 0 5 165 1 346 1 192 1 288 1 402 1
686 0 5 166 1 228 1 498 1 464 1 169 1
687 0 5 167 1 108 1 400 1 229 1 407 1
688 0 5 168 1 473 1 95 1 469 1 497 1
689 0 5 169 1 407 1 229 1 56 1 498 1
690 0 5 170 1 248 1 283 1 462 1 285 1
691 0 5 171 1 156 1 29 1 28 1 71 1
692 0 5 172 1 147 1 361 1 460 1 372 1
693 0 5 173 1 443 1 465 1 337 1 249 1
694 0 5 174 1 261 1 356 1 176 1 94 1
695 0 5 175 1 364 1 255 1 133 1 66 1
696 0 5 176 1 136 1 450 1 356 1 34 1
697 0 5 177 1 137 1 12 1 129 1 180 1
698 0 5 178 1 399 1 406 1 158 1 438 1
699 0 5 179 1 243 1 304 1 356 1 191 1
700 0 5 180 1 367 1 31 1 12 1 339 1
701 0 5 181 1 300 1 283 1 170 1 248 1
702 0 5 182 1 409 1 94 1 216 1 224 1
703 0 5 183 1 487 1 284 1 459 1 401 1
704 0 5 184 1 162 1 150 1 359 1 204 1
705 0 5 185 1 17 1 89 1 141 1 262 1
706 0 5 186 1 292 1 44 1 52 1 296 1
707 0 5 187 1 260 1 341 1 147 1 377 1
708 0 5 188 1 396 1 56 1 344 1 336 1
709 0 5 189 1 310 1 108 1 450 1 400 1
710 0 5 190 1 351 1 427 1 145 1 148 1
711 0 5 191 1 115 1 271 1 446 1 400 1
712 0 5 192 1 288 1 165 1 73 1 410 1
713 0 5 193 1 307 1 194 1 434 1 118 1
714 0 5 194 1 306 1 1 1 320 1 113 1
715 0 5 195 1 50 1 83 1 164 1 13 1
716 0 5 196 1 447 1 108 1 40 1 229 1
717 0 5 197 1 122 1 236 1 274 1 275 1
718 0 5 198 1 80 1 12 1 444 1 457 1
719 0 5 199 1 232 1 138 1 124 1 2 1
720 0 5 200 1 218 1 488 1 143 1 35 1
721 0 5 201 1 496 1 41 1 128 1 365 1
722 0 5 202 1 38 1 27 1 275 1 5 1
723 0 5 203 1 323 1 489 1 470 1 371 1
724 0 5 204 1 52 1 150 1 186 1 222 1
725 0 5 205 1 278 1 102 1 468 1 308 1
726 0 5 206 1 240 1 326 1 160 1 61 1
727 0 5 207 1 385 1 391 1 105 1 54 1
728 0 5 208 1 307 1 193 1 118 1 500 1
729 0 5 209 1 47 1 324 1 12 1 2 1
730 0 5 210 1 131 1 347 1 247 1 221 1
731 0 5 211 1 452 1 99 1 235 1 437 1
732 0 5 212 1 234 1 395 1 419 1 25 1
733 0 5 213 1 72 1 265 1 69 1 424 1
734 0 5 214 1 11 1 161 1 286 1 424 1
735 0 5 215 1 142 1 188 1 396 1 336 1
736 0 5 216 1 322 1 226 1 152 1 358 1
737 0 5 217 1 96 1 71 1 385 1 455 1
738 0 5 218 1 200 1 495 1 35 1 143 1
739 0 5 219 1 33 1 294 1 20 1 386 1
740 0 5 220 1 384 1 245 1 78 1 492 1
741 0 5 221 1 210 1 312 1 247 1 347 1
742 0 5 222 1 253 1 52 1 380 1 204 1
743 0 5 223 1 237 1 355 1 152 1 318 1
744 0 5 224 1 445 1 94 1 226 1 285 1
745 0 5 225 1 167 1 400 1 302 1 418 1
746 0 5 226 1 216 1 94 1 322 1 182 1
747 0 5 227 1 25 1 382 1 321 1 151 1
748 0 5 228 1 166 1 464 1 498 1 169 1
749 0 5 229 1 407 1 447 1 167 1 40 1
750 0 5 230 1 126 1 62 1 92 1 123 1
751 0 5 231 1 83 1 135 1 13 1 37 1
752 0 5 232 1 2 1 199 1 397 1 124 1
753 0 5 233 1 346 1 445 1 152 1 192 1
754 0 5 234 1 382 1 227 1 212 1 281 1
755 0 5 235 1 279 1 211 1 200 1 35 1
756 0 5 236 1 197 1 122 1 484 1 25 1
757 0 5 237 1 318 1 223 1 319 1 152 1
758 0 5 238 1 315 1 73 1 267 1 402 1
759 0 5 239 1 410 1 277 1 288 1 73 1
760 0 5 240 1 61 1 485 1 206 1 160 1
761 0 5 241 1 96 1 217 1 28 1 12 1
762 0 5 242 1 251 1 14 1 401 1 314 1
763 0 5 243 1 179 1 34 1 84 1 176 1
764 0 5 244 1 486 1 58 1 412 1 40 1
765 0 5 245 1 51 1 256 1 78 1 331 1
766 0 5 246 1 439 1 420 1 149 1 23 1
767 0 5 247 1 347 1 210 1 241 1 312 1
768 0 5 248 1 170 1 283 1 462 1 285 1
769 0 5 249 1 123 1 106 1 63 1 10 1
770 0 5 250 1 49 1 259 1 401 1 109 1
771 0 5 251 1 467 1 314 1 242 1 437 1
772 0 5 252 1 115 1 18 1 254 1 268 1
773 0 5 253 1 222 1 141 1 204 1 380 1
774 0 5 254 1 268 1 423 1 271 1 414 1
775 0 5 255 1 175 1 66 1 133 1 107 1
776 0 5 256 1 1 1 492 1 331 1 51 1
777 0 5 257 1 326 1 206 1 160 1 240 1
778 0 5 258 1 273 1 100 1 219 1 70 1
779 0 5 259 1 250 1 468 1 49 1 109 1
780 0 5 260 1 48 1 187 1 377 1 55 1
781 0 5 261 1 319 1 34 1 318 1 237 1
782 0 5 262 1 134 1 394 1 116 1 168 1
783 0 5 263 1 135 1 423 1 421 1 9 1
784 0 5 264 1 117 1 307 1 434 1 118 1
785 0 5 265 1 72 1 214 1 161 1 213 1
786 0 5 266 1 276 1 363 1 451 1 395 1
787 0 5 267 1 410 1 402 1 73 1 192 1
788 0 5 268 1 254 1 252 1 328 1 414 1
789 0 5 269 1 328 1 190 1 148 1 351 1
790 0 5 270 1 368 1 219 1 59 1 24 1
791 0 5 271 1 254 1 304 1 414 1 423 1
792 0 5 272 1 191 1 60 1 400 1 446 1
793 0 5 273 1 258 1 277 1 100 1 70 1
794 0 5 274 1 122 1 236 1 197 1 430 1
795 0 5 275 1 212 1 395 1 5 1 493 1
796 0 5 276 1 491 1 266 1 395 1 451 1
797 0 5 277 1 70 1 239 1 273 1 258 1
798 0 5 278 1 468 1 205 1 308 1 362 1
799 0 5 279 1 235 1 289 1 16 1 157 1
800 0 5 280 1 413 1 107 1 145 1 120 1
801 0 5 281 1 53 1 432 1 112 1 451 1
802 0 5 282 1 494 1 335 1 87 1 388 1
803 0 5 283 1 170 1 248 1 285 1 462 1
804 0 5 284 1 183 1 459 1 487 1 155 1
805 0 5 285 1 409 1 462 1 182 1 152 1
806 0 5 286 1 424 1 352 1 294 1 33 1
807 0 5 287 1 459 1 449 1 284 1 155 1
808 0 5 288 1 24 1 192 1 410 1 239 1
809 0 5 289 1 457 1 16 1 309 1 12 1
810 0 5 290 1 332 1 373 1 256 1 32 1
811 0 5 291 1 449 1 155 1 484 1 25 1
812 0 5 292 1 44 1 98 1 296 1 425 1
813 0 5 293 1 470 1 203 1 140 1 59 1
814 0 5 294 1 424 1 286 1 497 1 20 1
815 0 5 295 1 143 1 339 1 124 1 474 1
816 0 5 296 1 150 1 204 1 98 1 292 1
817 0 5 297 1 480 1 373 1 408 1 290 1
818 0 5 298 1 404 1 177 1 12 1 107 1
819 0 5 299 1 106 1 123 1 62 1 393 1
820 0 5 300 1 454 1 181 1 283 1 248 1
821 0 5 301 1 281 1 68 1 490 1 354 1
822 0 5 302 1 225 1 418 1 167 1 333 1
823 0 5 303 1 365 1 312 1 347 1 415 1
824 0 5 304 1 179 1 84 1 243 1 485 1
825 0 5 305 1 110 1 154 1 381 1 461 1
826 0 5 306 1 1 1 320 1 426 1 194 1
827 0 5 307 1 194 1 113 1 117 1 193 1
828 0 5 308 1 339 1 468 1 31 1 205 1
829 0 5 309 1 157 1 317 1 218 1 457 1
830 0 5 310 1 220 1 101 1 349 1 479 1
831 0 5 311 1 500 1 354 1 490 1 68 1
832 0 5 312 1 303 1 347 1 221 1 210 1
833 0 5 313 1 230 1 62 1 126 1 292 1
834 0 5 314 1 39 1 49 1 251 1 109 1
835 0 5 315 1 238 1 73 1 402 1 239 1
836 0 5 316 1 377 1 63 1 398 1 106 1
837 0 5 317 1 157 1 35 1 474 1 80 1
838 0 5 318 1 356 1 34 1 319 1 243 1
839 0 5 319 1 261 1 318 1 34 1 243 1
840 0 5 320 1 1 1 426 1 306 1 256 1
841 0 5 321 1 90 1 15 1 42 1 345 1
842 0 5 322 1 358 1 91 1 216 1 226 1
843 0 5 323 1 43 1 431 1 489 1 128 1
844 0 5 324 1 12 1 177 1 129 1 47 1
845 0 5 325 1 331 1 8 1 429 1 256 1
846 0 5 326 1 206 1 485 1 160 1 61 1
847 0 5 327 1 93 1 149 1 246 1 23 1
848 0 5 328 1 190 1 427 1 269 1 351 1
849 0 5 329 1 11 1 352 1 386 1 214 1
850 0 5 330 1 497 1 258 1 392 1 394 1
851 0 5 331 1 492 1 325 1 373 1 256 1
852 0 5 332 1 32 1 471 1 384 1 290 1
853 0 5 333 1 111 1 302 1 447 1 163 1
854 0 5 334 1 466 1 1 1 58 1 256 1
855 0 5 335 1 87 1 494 1 282 1 417 1
856 0 5 336 1 188 1 215 1 56 1 13 1
857 0 5 337 1 10 1 357 1 35 1 138 1
858 0 5 338 1 163 1 111 1 333 1 423 1
859 0 5 339 1 308 1 143 1 180 1 102 1
860 0 5 340 1 144 1 172 1 361 1 428 1
861 0 5 341 1 187 1 379 1 260 1 147 1
862 0 5 342 1 350 1 127 1 485 1 318 1
863 0 5 343 1 8 1 426 1 104 1 429 1
864 0 5 344 1 336 1 215 1 396 1 188 1
865 0 5 345 1 42 1 118 1 321 1 484 1
866 0 5 346 1 165 1 233 1 91 1 402 1
867 0 5 347 1 312 1 247 1 303 1 210 1
868 0 5 348 1 25 1 139 1 212 1 438 1
869 0 5 349 1 79 1 390 1 421 1 483 1
870 0 5 350 1 127 1 355 1 342 1 414 1
871 0 5 351 1 427 1 145 1 190 1 405 1
872 0 5 352 1 329 1 286 1 33 1 81 1
873 0 5 353 1 181 1 174 1 248 1 170 1
874 0 5 354 1 490 1 22 1 13 1 68 1
875 0 5 355 1 223 1 127 1 237 1 342 1
876 0 5 356 1 136 1 243 1 176 1 34 1
877 0 5 357 1 337 1 138 1 199 1 35 1
878 0 5 358 1 226 1 216 1 322 1 94 1
879 0 5 359 1 121 1 162 1 222 1 469 1
880 0 5 360 1 378 1 404 1 129 1 120 1
881 0 5 361 1 172 1 147 1 48 1 337 1
882 0 5 362 1 495 1 499 1 308 1 339 1
883 0 5 363 1 65 1 266 1 112 1 395 1
884 0 5 364 1 66 1 149 1 175 1 491 1
885 0 5 365 1 201 1 303 1 458 1 41 1
886 0 5 366 1 338 1 400 1 272 1 447 1
887 0 5 367 1 85 1 149 1 180 1 46 1
888 0 5 368 1 431 1 219 1 33 1 270 1
889 0 5 369 1 6 1 23 1 472 1 39 1
890 0 5 370 1 133 1 175 1 46 1 441 1
891 0 5 371 1 489 1 152 1 323 1 43 1
892 0 5 372 1 428 1 361 1 55 1 337 1
893 0 5 373 1 384 1 256 1 492 1 51 1
894 0 5 374 1 440 1 451 1 90 1 432 1
895 0 5 375 1 399 1 30 1 139 1 348 1
896 0 5 376 1 463 1 169 1 61 1 418 1
897 0 5 377 1 55 1 63 1 249 1 173 1
898 0 5 378 1 360 1 54 1 405 1 413 1
899 0 5 379 1 341 1 132 1 187 1 292 1
900 0 5 380 1 222 1 388 1 89 1 131 1
901 0 5 381 1 353 1 60 1 461 1 110 1
902 0 5 382 1 227 1 234 1 281 1 321 1
903 0 5 383 1 95 1 69 1 161 1 329 1
904 0 5 384 1 245 1 220 1 78 1 51 1
905 0 5 385 1 207 1 391 1 19 1 54 1
906 0 5 386 1 20 1 431 1 329 1 33 1
907 0 5 387 1 281 1 53 1 374 1 451 1
908 0 5 388 1 282 1 494 1 469 1 335 1
909 0 5 389 1 334 1 466 1 479 1 349 1
910 0 5 390 1 483 1 9 1 421 1 37 1
911 0 5 391 1 19 1 385 1 207 1 105 1
912 0 5 392 1 330 1 497 1 394 1 168 1
913 0 5 393 1 299 1 398 1 106 1 316 1
914 0 5 394 1 392 1 116 1 330 1 134 1
915 0 5 395 1 419 1 202 1 212 1 451 1
916 0 5 396 1 387 1 188 1 76 1 344 1
917 0 5 397 1 209 1 2 1 433 1 232 1
918 0 5 398 1 393 1 316 1 187 1 106 1
919 0 5 399 1 30 1 158 1 348 1 438 1
920 0 5 400 1 338 1 108 1 167 1 366 1
921 0 5 401 1 259 1 453 1 487 1 49 1
922 0 5 402 1 267 1 91 1 445 1 192 1
923 0 5 403 1 476 1 322 1 358 1 91 1
924 0 5 404 1 298 1 360 1 107 1 413 1
925 0 5 405 1 82 1 166 1 228 1 148 1
926 0 5 406 1 30 1 348 1 399 1 438 1
927 0 5 407 1 263 1 229 1 447 1 333 1
928 0 5 408 1 297 1 373 1 480 1 290 1
929 0 5 409 1 182 1 285 1 152 1 94 1
930 0 5 410 1 288 1 267 1 24 1 239 1
931 0 5 411 1 327 1 23 1 246 1 149 1
932 0 5 412 1 244 1 58 1 486 1 500 1
933 0 5 413 1 404 1 378 1 120 1 360 1
934 0 5 414 1 342 1 485 1 350 1 271 1
935 0 5 415 1 221 1 303 1 312 1 146 1
936 0 5 416 1 443 1 465 1 86 1 173 1
937 0 5 417 1 425 1 87 1 64 1 455 1
938 0 5 418 1 463 1 271 1 61 1 376 1
939 0 5 419 1 451 1 395 1 234 1 212 1
940 0 5 420 1 149 1 85 1 266 1 23 1
941 0 5 421 1 338 1 9 1 163 1 423 1
942 0 5 422 1 1 1 51 1 78 1 256 1
943 0 5 423 1 269 1 254 1 328 1 271 1
944 0 5 424 1 69 1 161 1 294 1 286 1
945 0 5 425 1 64 1 417 1 296 1 292 1
946 0 5 426 1 1 1 471 1 320 1 343 1
947 0 5 427 1 207 1 351 1 391 1 405 1
948 0 5 428 1 361 1 372 1 337 1 172 1
949 0 5 429 1 8 1 325 1 331 1 256 1
950 0 5 430 1 274 1 236 1 42 1 345 1
951 0 5 431 1 386 1 165 1 24 1 59 1
952 0 5 432 1 387 1 142 1 281 1 53 1
953 0 5 433 1 71 1 397 1 3 1 2 1
954 0 5 434 1 193 1 118 1 117 1 307 1
955 0 5 435 1 305 1 110 1 381 1 482 1
956 0 5 436 1 57 1 277 1 233 1 386 1
957 0 5 437 1 99 1 211 1 6 1 452 1
958 0 5 438 1 158 1 139 1 453 1 97 1
959 0 5 439 1 97 1 246 1 420 1 66 1
960 0 5 440 1 90 1 15 1 234 1 301 1
961 0 5 441 1 77 1 107 1 370 1 280 1
962 0 5 442 1 436 1 365 1 57 1 458 1
963 0 5 443 1 337 1 173 1 357 1 465 1
964 0 5 444 1 198 1 80 1 474 1 12 1
965 0 5 445 1 402 1 91 1 88 1 233 1
966 0 5 446 1 477 1 119 1 60 1 114 1
967 0 5 447 1 196 1 40 1 366 1 229 1
968 0 5 448 1 453 1 97 1 38 1 487 1
969 0 5 449 1 155 1 375 1 287 1 291 1
970 0 5 450 1 310 1 482 1 189 1 446 1
971 0 5 451 1 432 1 281 1 387 1 234 1
972 0 5 452 1 481 1 478 1 99 1 488 1
973 0 5 453 1 401 1 487 1 27 1 438 1
974 0 5 454 1 159 1 285 1 462 1 152 1
975 0 5 455 1 21 1 433 1 209 1 397 1
976 0 5 456 1 340 1 144 1 478 1 481 1
977 0 5 457 1 309 1 74 1 198 1 218 1
978 0 5 458 1 103 1 146 1 303 1 415 1
979 0 5 459 1 183 1 284 1 14 1 287 1
980 0 5 460 1 398 1 316 1 55 1 187 1
981 0 5 461 1 381 1 408 1 60 1 297 1
982 0 5 462 1 88 1 224 1 94 1 285 1
983 0 5 463 1 376 1 418 1 169 1 61 1
984 0 5 464 1 344 1 336 1 228 1 169 1
985 0 5 465 1 36 1 173 1 416 1 443 1
986 0 5 466 1 334 1 1 1 447 1 196 1
987 0 5 467 1 437 1 472 1 6 1 39 1
988 0 5 468 1 31 1 308 1 278 1 205 1
989 0 5 469 1 388 1 359 1 213 1 473 1
990 0 5 470 1 203 1 140 1 24 1 20 1
991 0 5 471 1 426 1 1 1 32 1 320 1
992 0 5 472 1 6 1 39 1 369 1 467 1
993 0 5 473 1 168 1 95 1 469 1 383 1
994 0 5 474 1 444 1 80 1 232 1 218 1
995 0 5 475 1 68 1 490 1 354 1 301 1
996 0 5 476 1 403 1 322 1 358 1 91 1
997 0 5 477 1 300 1 181 1 119 1 114 1
998 0 5 478 1 340 1 48 1 456 1 481 1
999 0 5 479 1 366 1 482 1 466 1 334 1
1000 0 5 480 1 290 1 384 1 220 1 332 1
1001 0 5 481 1 478 1 48 1 35 1 452 1
1002 0 5 482 1 272 1 366 1 479 1 400 1
1003 0 5 483 1 37 1 9 1 40 1 13 1
1004 0 5 484 1 291 1 42 1 151 1 25 1
1005 0 5 485 1 84 1 304 1 342 1 271 1
1006 0 5 486 1 40 1 13 1 244 1 412 1
1007 0 5 487 1 438 1 27 1 202 1 139 1
1008 0 5 488 1 200 1 35 1 501 1 218 1
1009 0 5 489 1 43 1 371 1 323 1 322 1
1010 0 5 490 1 354 1 22 1 68 1 50 1
1011 0 5 491 1 276 1 149 1 364 1 50 1
1012 0 5 492 1 256 1 1 1 32 1 51 1
1013 0 5 493 1 202 1 38 1 275 1 487 1
1014 0 5 494 1 335 1 282 1 217 1 87 1
1015 0 5 495 1 362 1 102 1 218 1 205 1
1016 0 5 496 1 41 1 128 1 201 1 152 1
1017 0 5 497 1 81 1 294 1 424 1 286 1
1018 0 5 498 1 169 1 56 1 229 1 82 1
1019 0 5 499 1 26 1 93 1 362 1 74 1
1020 0 5 500 1 208 1 354 1 13 1 311 1
1021 0 5 501 1 102 1 143 1 205 1 200 1
1022 0 5 502 0 520 1 519 1 518 1 517 1
1023 0 5 503 0 520 1 519 1 518 1 517 1
1024 0 5 504 0 520 1 519 1 518 1 517 1
1025 0 5 505 0 520 1 519 1 518 1 517 1
1026 0 5 506 0 520 1 519 1 518 1 517 1
1027 0 5 507 0 520 1 519 1 518 1 517 1
1028 0 5 508 0 520 1 519 1 518 1 517 1
1029 0 5 509 0 520 1 519 1 518 1 517 1
1030 0 5 510 0 520 1 519 1 518 1 517 1
1031 0 5 511 0 520 1 519 1 518 1 517 1
1032 0 5 512 0 520 1 519 1 518 1 517 1
1033 0 5 513 0 520 1 519 1 518 1 517 1
1034 0 5 514 0 520 1 519 1 518 1 517 1
1035 0 5 515 0 520 1 519 1 518 1 517 1
1036 0 5 516 0 520 1 519 1 518 1 517 1
1037 0 5 517 0 520 1 519 1 518 1 517 1
1038 0 5 518 0 520 1 519 1 518 1 517 1
1039 0 5 519 0 520 1 519 1 518 1 517 1
1040 0 5 520 0 520 1 519 1 518 1 517 1
-1
EOF
